30 
300 
4.6 7.1 0 0
5 5.6 0 -103
5.7 11.4 -20 -81
4.4 12.3 20 -26
2.8 14.3 -30 -117
3.2 10.3 15 -11
3.5 9.8 -15 -119
4.4 8.4 10 -20
7.8 11 -20 -112
8.8 9.8 20 -10
7.7 8.2 20 -24
6.3 7.9 15 -14
5.4 8.2 10 -20
5.8 6.8 10 -23
6.7 5.8 -25 -133
13.8 13.1 40 -27
14.1 14.2 -40 -104
11.2 13.6 30 -20
9.7 16.4 30 -21
9.5 18.8 -50 -69
4.7 16.8 -30 -86
